 Ni O
1.0
11.5365886688 0.0 0.0
0.0 11.5365886688 0.0
0.0 0.0 23.1576004028
Ni O
80 80
selective
cart
1.442073584 1.442073584 0.0 F F F !M 2 !B a
4.326220751 1.442073584 0.0 F F F !M 2
7.210367918 1.442073584 0.0 F F F !M 2
10.094515085 1.442073584 0.0 F F F !M 2
1.442073584 4.326220751 0.0 F F F
4.326220751 4.326220751 0.0 F F F
7.210367918 4.326220751 0.0 F F F
10.094515085 4.326220751 0.0 F F F
1.442073584 7.210367918 0.0 F F F
4.326220751 7.210367918 0.0 F F F
7.210367918 7.210367918 0.0 F F F
10.094515085 7.210367918 0.0 F F F
1.442073584 10.094515085 0.0 F F F
4.326220751 10.094515085 0.0 F F F
7.210367918 10.094515085 0.0 F F F
10.094515085 10.094515085 0.0 F F F
0.0 0.0 2.039400101 F F F
2.884147167 0.0 2.039400101 F F F
5.768294334 0.0 2.039400101 F F F
8.652441502 0.0 2.039400101 F F F
0.0 2.884147167 2.039400101 F F F
2.884147167 2.884147167 2.039400101 F F F
5.768294334 2.884147167 2.039400101 F F F
8.652441502 2.884147167 2.039400101 F F F
0.0 5.768294334 2.039400101 F F F
2.884147167 5.768294334 2.039400101 F F F
5.768294334 5.768294334 2.039400101 F F F
8.652441502 5.768294334 2.039400101 F F F
0.0 8.652441502 2.039400101 F F F
2.884147167 8.652441502 2.039400101 F F F
5.768294334 8.652441502 2.039400101 F F F
8.652441502 8.652441502 2.039400101 F F F
1.442073584 1.442073584 4.078800201 F F F
4.326220751 1.442073584 4.078800201 F F F
7.210367918 1.442073584 4.078800201 F F F
10.094515085 1.442073584 4.078800201 F F F
1.442073584 4.326220751 4.078800201 F F F
4.326220751 4.326220751 4.078800201 F F F
7.210367918 4.326220751 4.078800201 F F F
10.094515085 4.326220751 4.078800201 F F F
1.442073584 7.210367918 4.078800201 F F F
4.326220751 7.210367918 4.078800201 F F F
7.210367918 7.210367918 4.078800201 F F F
10.094515085 7.210367918 4.078800201 F F F
1.442073584 10.094515085 4.078800201 F F F
4.326220751 10.094515085 4.078800201 F F F
7.210367918 10.094515085 4.078800201 F F F
10.094515085 10.094515085 4.078800201 F F F
0.0 0.0 6.118200302 F F F
2.884147167 0.0 6.118200302 F F F
5.768294334 0.0 6.118200302 F F F
8.652441502 0.0 6.118200302 F F F
0.0 2.884147167 6.118200302 F F F
2.884147167 2.884147167 6.118200302 F F F
5.768294334 2.884147167 6.118200302 F F F
8.652441502 2.884147167 6.118200302 F F F
0.0 5.768294334 6.118200302 F F F
2.884147167 5.768294334 6.118200302 F F F
5.768294334 5.768294334 6.118200302 F F F
8.652441502 5.768294334 6.118200302 F F F
0.0 8.652441502 6.118200302 F F F
2.884147167 8.652441502 6.118200302 F F F
5.768294334 8.652441502 6.118200302 F F F
8.652441502 8.652441502 6.118200302 F F F
1.442073584 1.442073584 8.157600402 F F F
4.326220751 1.442073584 8.157600402 F F F
7.210367918 1.442073584 8.157600402 F F F
10.094515085 1.442073584 8.157600402 F F F
1.442073584 4.326220751 8.157600402 F F F
4.326220751 4.326220751 8.157600402 F F F
7.210367918 4.326220751 8.157600402 F F F
10.094515085 4.326220751 8.157600402 F F F
1.442073584 7.210367918 8.157600402 F F F
4.326220751 7.210367918 8.157600402 F F F
7.210367918 7.210367918 8.157600402 F F F
10.094515085 7.210367918 8.157600402 F F F
1.442073584 10.094515085 8.157600402 F F F
4.326220751 10.094515085 8.157600402 F F F
7.210367918 10.094515085 8.157600402 F F F
10.094515085 10.094515085 8.157600402 F F F
0.0 0.0 0.0 
2.884147167 0.0 0.0 
5.768294334 0.0 0.0 
8.652442189 0.0 0.0 
0.0 2.884147167 0.0 
2.884147167 2.884147167 0.0 
5.768294334 2.884147167 0.0 
8.652442189 2.884147167 0.0 
0.0 5.768294334 0.0 
2.884147167 5.768294334 0.0 
5.768294334 5.768294334 0.0 
8.652442189 5.768294334 0.0 
0.0 8.652442189 0.0 
2.884147167 8.652442189 0.0 
5.768294334 8.652442189 0.0 
8.652442189 8.652442189 0.0 
1.442073584 1.442073584 2.039400095 
4.326221095 1.442073584 2.039400095 
7.210367918 1.442073584 2.039400095 
10.094515085 1.442073584 2.039400095 
1.442073584 4.326221095 2.039400095 
4.326221095 4.326221095 2.039400095 
7.210367918 4.326221095 2.039400095 
10.094515085 4.326221095 2.039400095 
1.442073584 7.210367918 2.039400095 
4.326221095 7.210367918 2.039400095 
7.210367918 7.210367918 2.039400095 
10.094515085 7.210367918 2.039400095 
1.442073584 10.094515085 2.039400095 
4.326221095 10.094515085 2.039400095 
7.210367918 10.094515085 2.039400095 
10.094515085 10.094515085 2.039400095 
0.0 0.0 4.078800191 
2.884147167 0.0 4.078800191 
5.768294334 0.0 4.078800191 
8.652442189 0.0 4.078800191 
0.0 2.884147167 4.078800191 
2.884147167 2.884147167 4.078800191 
5.768294334 2.884147167 4.078800191 
8.652442189 2.884147167 4.078800191 
0.0 5.768294334 4.078800191 
2.884147167 5.768294334 4.078800191 
5.768294334 5.768294334 4.078800191 
8.652442189 5.768294334 4.078800191 
0.0 8.652442189 4.078800191 
2.884147167 8.652442189 4.078800191 
5.768294334 8.652442189 4.078800191 
8.652442189 8.652442189 4.078800191 
1.442073584 1.442073584 6.118200113 
4.326221095 1.442073584 6.118200113 
7.210367918 1.442073584 6.118200113 
10.094515085 1.442073584 6.118200113 
1.442073584 4.326221095 6.118200113 
4.326221095 4.326221095 6.118200113 
7.210367918 4.326221095 6.118200113 
10.094515085 4.326221095 6.118200113 
1.442073584 7.210367918 6.118200113 
4.326221095 7.210367918 6.118200113 
7.210367918 7.210367918 6.118200113 
10.094515085 7.210367918 6.118200113 
1.442073584 10.094515085 6.118200113 
4.326221095 10.094515085 6.118200113 
7.210367918 10.094515085 6.118200113 
10.094515085 10.094515085 6.118200113 
0.0 0.0 8.157600381 
2.884147167 0.0 8.157600381 
5.768294334 0.0 8.157600381 
8.652442189 0.0 8.157600381 
0.0 2.884147167 8.157600381 
2.884147167 2.884147167 8.157600381 
5.768294334 2.884147167 8.157600381 
8.652442189 2.884147167 8.157600381 
0.0 5.768294334 8.157600381 
2.884147167 5.768294334 8.157600381 
5.768294334 5.768294334 8.157600381 
8.652442189 5.768294334 8.157600381 
0.0 8.652442189 8.157600381 
2.884147167 8.652442189 8.157600381 
5.768294334 8.652442189 8.157600381 
8.652442189 8.652442189 8.157600381 
